<number of tasks>
50

<cycle time>
1000

<order strength>
0.195


<task times>
1 210
2 44
3 159
4 99
5 109
6 52
7 156
8 162
9 112
10 54
11 99
12 81
13 133
14 241
15 267
16 109
17 174
18 83
19 217
20 189
21 36
22 174
23 111
24 103
25 230
26 138
27 84
28 125
29 64
30 245
31 82
32 95
33 176
34 150
35 103
36 198
37 117
38 59
39 87
40 60
41 134
42 269
43 146
44 180
45 118
46 132
47 46
48 200
49 104
50 150

<precedence relations>
1,7
2,22
3,9
3,11
4,10
4,20
5,8
6,25
7,12
7,20
7,34
8,18
8,19
10,13
10,17
10,21
11,14
11,15
11,16
12,26
13,30
15,26
17,27
19,25
20,22
20,23
21,24
24,28
24,32
26,30
26,31
26,33
27,29
27,34
28,35
29,40
30,38
31,39
33,36
33,37
35,45
36,42
38,41
40,43
41,45
41,48
41,50
42,46
43,44
43,47
43,49

<end>
